s td 321 6 378
b 1 185 225
b 2 173 225 226
b 3 172 226 227
b 4 42 227 228
b 5 75 228 229
b 6 187 229 230
b 7 63 230 231
b 8 179 231 232
b 9 17 232 233
b 10 41 233 234
b 11 16 234 235
b 12 97 235 236
b 13 117 236 237
b 14 119 237 238
b 15 125 238 239
b 16 29 239 240
b 17 10 240 241
b 18 183 241 242
b 19 121 242 243
b 20 175 243 244
b 21 154 244 245
b 22 87 245 246
b 23 90 246 247
b 24 65 247 248
b 25 7 248 249
b 26 129 249 250
b 27 37 250 251
b 28 135 251 252
b 29 89 252 253
b 30 11 253 254
b 31 161 254 255
b 32 1 255 256
b 33 78 256 257
b 34 111 257 258
b 35 108 258 259
b 36 102 259 260
b 37 14 260 261
b 38 133 261 262
b 39 107 262 263
b 40 95 263 264
b 41 122 264 265
b 42 162 265 266
b 43 160 266 267
b 44 182 267 268
b 45 30 268 269
b 46 174 269 270
b 47 9 270 271
b 48 86 188
b 49 168 188 189
b 50 115 189 190
b 51 66 190 191
b 52 167 280 281
b 53 138 281 282
b 54 120 282 283
b 55 155 283 284
b 56 106 284 285
b 57 20 285 286
b 58 28 286 287
b 59 164 287 288
b 60 15 288 289
b 61 19 223 224
b 62 72 145 224
b 63 72 143 378
b 64 50 377 378
b 65 98 376 377
b 66 51 375 376
b 67 82 374 375
b 68 170 373 374
b 69 36 372 373
b 70 84 371 372
b 71 44 370 371
b 72 58 369 370
b 73 40 368 369
b 74 76 367 368
b 75 134 366 367
b 76 169 365 366
b 77 132 364 365
b 78 55 363 364
b 79 157 362 363
b 80 32 361 362
b 81 100 360 361
b 82 47 359 360
b 83 123 358 359
b 84 136 357 358
b 85 113 356 357
b 86 140 355 356
b 87 93 354 355
b 88 12 353 354
b 89 141 352 353
b 90 176 351 352
b 91 56 350 351
b 92 6 222 223
b 93 96 221 222
b 94 60 220 221
b 95 186 219 220
b 96 94 299 300
b 97 148 300 301
b 98 85 298 299
b 99 79 297 298
b 100 158 296 297
b 101 150 295 296
b 102 45 341 342
b 103 24 342 343
b 104 171 343 344
b 105 166 344 345
b 106 181 345 346
b 107 110 346 347
b 108 53 347 348
b 109 5 348 349
b 110 139 272 273
b 111 180 271 272
b 112 153 273 274
b 113 31 274 275
b 114 101 275 276
b 115 131 276 277
b 116 68 277 278
b 117 61 278 279
b 118 221 222 223
b 119 112 336 337
b 120 34 335 336
b 121 74 334 335
b 122 109 333 334
b 123 92 332 333
b 124 3 331 332
b 125 39 330 331
b 126 178 329 330
b 127 165 328 329
b 128 52 327 328
b 129 77 326 327
b 130 118 325 326
b 131 59 324 325
b 132 144 323 324
b 133 46 322 323
b 134 23 321 322
b 135 156 320 321
b 136 104 319 320
b 137 25 318 319
b 138 88 317 318
b 139 128 316 317
b 140 146 315 316
b 141 99 314 315
b 142 38 313 314
b 143 64 312 313
b 144 91 311 312
b 145 18 310 311
b 146 13 309 310
b 147 43 308 309
b 148 149 307 308
b 149 116 306 307
b 150 105 305 306
b 151 48 304 305
b 152 26 303 304
b 153 163 302 303
b 154 22 337 338
b 155 33 338 339
b 156 81 339 340
b 157 103 198 199
b 158 127 194 195
b 159 177 195 196
b 160 151 196 197
b 161 69 193 194
b 162 67 192 193
b 163 184 191 192
b 164 184 192 193
b 165 335 336 337
b 166 330 331 332
b 167 360 361 362
b 168 314 315 316
b 169 357 358 359
b 170 371 372 373
b 171 72 224 378
b 172 322 323 324
b 173 374 375 376
b 174 152 202 203
b 175 147 203 204
b 176 71 201 202
b 177 80 200 201
b 178 159 292 293
b 179 126 291 292
b 180 137 290 291
b 181 62 293 294
b 182 362 363 364
b 183 114 212 213
b 184 21 211 212
b 185 57 210 211
b 186 124 209 210
b 187 130 208 209
b 188 35 207 208
b 189 364 365 366
b 190 281 282 283
b 191 194 195 196
b 192 295 296 297
b 193 180 272 273
b 194 292 293 294
b 195 374 376 377
b 196 221 223 224
b 197 219 220 221
b 198 320 321 322
b 199 364 366 367
b 200 368 369 370
b 201 351 352 353
b 202 316 317 318
b 203 287 288 289
b 204 299 300 301
b 205 326 327 328
b 206 201 202 203
b 207 351 353 354
b 208 194 196 197
b 209 367 368 370
b 210 284 285 286
b 211 276 277 278
b 212 276 278 279
b 213 306 307 308
b 214 283 284 286
b 215 347 348 349
b 216 346 347 349
b 217 341 342 343
b 218 306 308 309
b 219 310 311 312
b 220 4 215 216
b 221 49 216 217
b 222 8 217 218
b 223 2 214 215
b 224 359 360 362
b 225 211 212 213
b 226 314 316 318
b 227 362 364 367
b 228 214 215 216
b 229 319 320 322
b 230 370 371 373
b 231 281 283 286
b 232 201 203 204
b 233 356 357 359
b 234 337 338 339
b 235 304 305 306
b 236 373 374 377
b 237 328 329 330
b 238 330 332 333
b 239 362 367 370
b 240 326 328 330
b 241 302 303 304
b 242 286 287 289
b 243 208 209 210
b 244 359 362 370
b 245 280 281 286
b 246 356 359 370
b 247 208 210 211
b 248 302 304 306
b 249 302 306 309
b 250 324 325 326
b 251 309 310 312
b 252 312 313 314
b 253 280 286 289
b 254 318 319 322
b 255 297 298 299
b 256 302 309 312
b 257 322 324 326
b 258 291 292 294
b 259 355 356 370
b 260 344 345 346
b 261 302 312 314
b 262 275 276 279
b 263 351 354 355
b 264 337 339 340
b 265 333 334 335
b 266 200 201 204
b 267 221 224 378
b 268 273 274 275
b 269 295 297 299
b 270 326 330 333
b 271 350 351 355
b 272 355 370 373
b 273 341 343 344
b 274 273 275 279
b 275 333 335 337
b 276 214 216 217
b 277 295 299 301
b 278 355 373 377
b 279 355 377 378
b 280 341 344 346
b 281 302 314 318
b 282 341 346 349
b 283 322 326 333
b 284 184 193 194
b 285 214 217 218
b 286 302 318 322
b 287 302 322 333
b 288 290 291 294
b 289 184 194 197
b 290 219 221 378
b 291 302 333 337
b 292 208 211 213
b 293 302 337 340
b 294 180 273 279
b 295 219 355 378
b 296 207 208 213
b 297 219 350 355
b 298 27 205 206
b 299 180 198 199 200
b 300 180 198 200 279
b 301 184 301 302 340
b 302 184 197 301 340
b 303 197 295 301 340
b 304 198 200 204 279
b 305 54 205 206 207
b 306 54 279 280 289
b 307 54 205 207 213
b 308 73 289 290 294
b 309 73 213 214 218
b 310 83 219 349 350
b 311 83 219 341 349
b 312 142 197 198 340 341
b 313 197 198 295 340 341
b 314 54 73 279 289 294
b 315 54 73 205 213 218
b 316 83 198 204 205 279
b 317 83 198 219 295 341
b 318 70 218 219 294 295
b 319 54 73 205 218 279 294
b 320 83 198 218 219 294 295
b 321 83 198 205 218 279 294
316 321
319 321
320 321
317 320
318 320
313 317
311 317
310 311
282 311
280 282
216 282
107 216
215 216
108 215
109 215
273 280
260 280
106 260
105 260
104 273
217 273
103 217
102 217
297 310
295 297
271 297
91 271
263 271
87 263
207 263
88 207
201 207
90 201
89 201
290 295
279 295
278 279
64 279
272 278
236 278
195 236
68 236
65 195
173 195
66 173
67 173
259 272
230 272
71 230
170 230
69 170
70 170
86 259
246 259
244 246
233 246
85 233
169 233
83 169
84 169
239 244
224 244
82 224
167 224
80 167
81 167
227 239
209 239
74 209
200 209
73 200
72 200
199 227
182 227
79 182
78 182
75 199
189 199
77 189
76 189
267 290
197 290
95 197
94 197
196 267
171 267
63 171
62 171
118 196
61 196
92 118
93 118
312 313
303 313
302 303
277 303
269 277
204 277
97 204
96 204
255 269
192 269
100 192
101 192
99 255
98 255
301 302
289 302
284 289
208 289
191 208
160 208
159 191
158 191
164 284
161 284
163 164
162 164
51 163
50 51
49 50
48 49
293 301
291 293
264 293
234 264
156 264
154 234
155 234
287 291
275 291
265 275
165 275
119 165
120 165
121 265
122 265
286 287
283 287
270 283
257 283
250 257
172 257
133 172
132 172
131 250
130 250
238 270
240 270
237 240
205 240
128 205
129 205
126 237
127 237
123 238
166 238
125 166
124 166
281 286
254 286
229 254
137 254
198 229
136 229
134 198
135 198
261 281
226 281
202 226
168 226
140 168
141 168
138 202
139 202
256 261
252 261
142 252
143 252
251 256
249 256
248 249
218 249
213 218
147 218
148 213
149 213
235 248
241 248
152 241
153 241
151 235
150 235
219 251
146 251
145 219
144 219
314 319
315 319
307 315
309 315
285 309
276 285
222 285
228 276
221 276
223 228
220 228
305 307
296 307
292 296
188 296
247 292
225 292
183 225
184 225
243 247
185 247
187 243
186 243
298 305
306 314
308 314
288 308
258 288
180 288
194 258
179 258
181 194
178 194
253 306
242 253
245 253
52 245
231 245
214 231
190 231
54 190
53 190
55 214
210 214
56 210
57 210
203 242
58 242
59 203
60 203
304 316
300 304
266 304
232 266
177 266
206 232
175 232
176 206
174 206
299 300
294 300
274 294
193 294
111 193
110 193
47 111
46 47
45 46
44 45
43 44
42 43
41 42
40 41
39 40
38 39
37 38
36 37
35 36
34 35
33 34
32 33
31 32
30 31
29 30
28 29
27 28
26 27
25 26
24 25
23 24
22 23
21 22
20 21
19 20
18 19
17 18
16 17
15 16
14 15
13 14
12 13
11 12
10 11
9 10
8 9
7 8
6 7
5 6
4 5
3 4
2 3
1 2
268 274
262 274
114 262
212 262
117 212
211 212
116 211
115 211
113 268
112 268
157 299
